p tw 55 106
5 15
5 13
5 20
10 24
10 16
10 25
1 53
1 9
1 12
1 3
6 23
6 22
6 17
2 5
2 20
2 17
8 12
8 16
8 19
4 6
4 13
24 25
24 51
37 40
37 39
52 54
52 55
14 18
14 17
46 53
46 49
46 50
29 42
29 34
21 24
21 55
21 23
33 36
33 45
28 38
28 42
28 43
38 51
9 13
9 11
53 54
13 19
41 42
41 46
17 20
32 43
32 38
34 35
34 46
34 41
34 36
34 40
44 49
27 43
27 30
27 39
12 24
12 17
12 23
54 55
7 52
7 21
7 13
7 11
39 54
3 18
3 55
3 7
35 47
35 38
35 55
35 50
35 37
48 49
48 51
16 18
31 49
31 47
11 21
11 53
11 12
43 44
40 48
40 43
40 55
26 29
23 24
23 51
36 45
36 38
30 48
30 46
30 52
30 33
30 47
51 52
51 53
51 54
19 54
47 53
15 16
